
  26    0


   0  11 2 3 5 6 7 9 10 22 23 24 25 
   7   6 17 16 15 14 13 4 
   9   4 21 17 11 8 
   6   3 18 12 11 
   3   3 20 14 13 
   4   2 19 16 
   7   2 15 14 
   2   1 12 
   8   1 13 
   7   1 11 
   2   1 26
  10   1 26
   7   1 26
   4   1 26
   5   1 26
  10   1 26
   7   1 26
   8   1 26
   2   1 26
   4   1 26
   5   1 26
   5   1 26
   4   1 26
   9   1 26
   2   1 26
   0   0 
